(set-info :origin "NTS benchmark converted to SMT-LIB2 using Eldarica (http://lara.epfl.ch/w/eldarica)")
(set-logic HORN)
(declare-fun main_h_33 (Int Int Int Int Int Int Int Int Int Int Int Int) Bool)
(declare-fun main_h_22 (Int Int Int Int Int Int Int Int Int Int Int Int) Bool)
(declare-fun main_h_31 (Int Int Int Int Int Int Int Int Int Int Int Int) Bool)
(declare-fun main_h_30 (Int Int Int Int Int Int Int Int Int Int Int Int) Bool)
(declare-fun main_h_29 (Int Int Int Int Int Int Int Int Int Int Int Int) Bool)
(declare-fun main_h_23 (Int Int Int Int Int Int Int Int Int Int Int Int) Bool)
(declare-fun main_h_32 (Int Int Int Int Int Int Int Int Int Int Int Int) Bool)
(declare-fun main_h_27 (Int Int Int Int Int Int Int Int Int Int Int Int) Bool)
(declare-fun main_h_28 (Int Int Int Int Int Int Int Int Int Int Int Int) Bool)
(declare-fun main_h_24 (Int Int Int Int Int Int Int Int Int Int Int Int) Bool)
(declare-fun main_h_21 (Int Int Int Int Int Int Int Int Int Int Int Int) Bool)
(declare-fun main_h_18 (Int Int Int Int Int Int Int Int Int Int Int Int) Bool)
(declare-fun main_h_20 (Int Int Int Int Int Int Int Int Int Int Int Int) Bool)
(declare-fun main_h_17 (Int Int Int Int Int Int Int Int Int Int Int Int) Bool)
(declare-fun main_h_10 (Int Int Int Int Int Int Int Int Int Int Int Int) Bool)
(declare-fun main_h_19 (Int Int Int Int Int Int Int Int Int Int Int Int) Bool)
(declare-fun main_h_9 (Int Int Int Int Int Int Int Int Int Int Int Int) Bool)
(declare-fun main_h_14 (Int Int Int Int Int Int Int Int Int Int Int Int) Bool)
(declare-fun main_h_16 (Int Int Int Int Int Int Int Int Int Int Int Int) Bool)
(declare-fun main_h_13 (Int Int Int Int Int Int Int Int Int Int Int Int) Bool)
(declare-fun main_h_12 (Int Int Int Int Int Int Int Int Int Int Int Int) Bool)
(declare-fun main_h_11 (Int Int Int Int Int Int Int Int Int Int Int Int) Bool)
(declare-fun main_h_8 (Int Int Int Int Int Int Int Int Int Int Int Int) Bool)
(declare-fun main_h_7 (Int Int Int Int Int Int Int Int Int Int Int Int) Bool)
(declare-fun main_h_6 (Int Int Int Int Int Int Int Int Int Int Int Int) Bool)
(declare-fun main_h_5 (Int Int Int Int Int Int Int Int Int Int Int Int) Bool)
(declare-fun main_h_4 (Int Int Int Int Int Int Int Int Int Int Int Int) Bool)
(declare-fun main_h_3 (Int Int Int Int Int Int Int Int Int Int Int Int) Bool)
(declare-fun main_h_2 (Int Int Int Int Int Int Int Int Int Int Int Int) Bool)
(declare-fun main_h_1 (Int Int Int Int Int Int Int Int Int Int Int Int) Bool)
(assert(forall((?A Int)(?B Int)(?C Int)(?D Int)(?E Int)(?F Int)(?G Int)(?H Int)(?I Int)(?J Int)(?K Int)(?L Int)(?M Int)(?N Int)(?O Int)(?P Int)(?Q Int)(?R Int))(=>(and (main_h_33 ?A ?B ?C ?D ?E ?F ?M ?N ?O ?P ?Q ?R)(and (and (= ?J ?R) (= ?L ?P)) (and (and (and (= ?M ?G) (= ?N ?H)) (= ?O ?I)) (= ?Q ?K)))) (main_h_22 ?A ?B ?C ?D ?E ?F ?G ?H ?I ?J ?K ?L))))
(assert(forall((?A Int)(?B Int)(?C Int)(?D Int)(?E Int)(?F Int)(?G Int)(?H Int)(?I Int)(?J Int)(?K Int)(?L Int)(?M Int)(?N Int)(?O Int)(?P Int)(?Q Int)(?R Int))(=>(and (main_h_31 ?A ?B ?C ?D ?E ?F ?M ?N ?O ?P ?Q ?R)(and (and (= ?N 1) (= ?L (+ ?N ?R))) (and (and (and (and (= ?M ?G) (= ?N ?H)) (= ?O ?I)) (= ?P ?J)) (= ?Q ?K)))) (main_h_33 ?A ?B ?C ?D ?E ?F ?G ?H ?I ?J ?K ?L))))
(assert(not (exists((?A Int)(?B Int)(?C Int)(?D Int)(?E Int)(?F Int)(?G Int)(?H Int)(?I Int)(?J Int)(?K Int)(?L Int)(?M Int)(?N Int)(?O Int)(?P Int)(?Q Int)(?R Int))(and (main_h_30 ?A ?B ?C ?D ?E ?F ?G ?H ?I ?J ?K ?L)(and (and (and (and (and (= ?G ?M) (= ?H ?N)) (= ?I ?O)) (= ?J ?P)) (= ?K ?Q)) (= ?L ?R))))))
(assert(forall((?A Int)(?B Int)(?C Int)(?D Int)(?E Int)(?F Int)(?G Int)(?H Int)(?I Int)(?J Int)(?K Int)(?L Int)(?M Int)(?N Int)(?O Int)(?P Int)(?Q Int)(?R Int))(=>(and (main_h_29 ?A ?B ?C ?D ?E ?F ?M ?N ?O ?P ?Q ?R)(and (= ?I (- ?O 1)) (and (and (and (and (= ?M ?G) (= ?N ?H)) (= ?P ?J)) (= ?Q ?K)) (= ?R ?L)))) (main_h_31 ?A ?B ?C ?D ?E ?F ?G ?H ?I ?J ?K ?L))))
(assert(forall((?A Int)(?B Int)(?C Int)(?D Int)(?E Int)(?F Int)(?G Int)(?H Int)(?I Int)(?J Int)(?K Int)(?L Int)(?M Int)(?N Int)(?O Int)(?P Int)(?Q Int)(?R Int))(=>(and (main_h_32 ?A ?B ?C ?D ?E ?F ?M ?N ?O ?P ?Q ?R)(and (and (and (and (= ?J ?R) (= ?L ?P)) (= ?K ?M)) (= ?H ?Q)) (and (= ?M ?G) (= ?O ?I)))) (main_h_23 ?A ?B ?C ?D ?E ?F ?G ?H ?I ?J ?K ?L))))
(assert(forall((?A Int)(?B Int)(?C Int)(?D Int)(?E Int)(?F Int)(?G Int)(?H Int)(?I Int)(?J Int)(?K Int)(?L Int)(?M Int)(?N Int)(?O Int)(?P Int)(?Q Int)(?R Int))(=>(and (main_h_31 ?A ?B ?C ?D ?E ?F ?M ?N ?O ?P ?Q ?R)(and (and (and (and (= ?H 1) (= ?G (- ?N 1))) (= ?L (+ ?N ?R))) (>= ?N 2)) (and (and (= ?O ?I) (= ?P ?J)) (= ?Q ?K)))) (main_h_32 ?A ?B ?C ?D ?E ?F ?G ?H ?I ?J ?K ?L))))
(assert(forall((?A Int)(?B Int)(?C Int)(?D Int)(?E Int)(?F Int)(?G Int)(?H Int)(?I Int)(?J Int)(?K Int)(?L Int)(?M Int)(?N Int)(?O Int)(?P Int)(?Q Int)(?R Int))(=>(and (main_h_27 ?A ?B ?C ?D ?E ?F ?M ?N ?O ?P ?Q ?R)(and (and (and (and (and (= ?M ?G) (= ?N ?H)) (= ?O ?I)) (= ?P ?J)) (= ?Q ?K)) (= ?R ?L))) (main_h_29 ?A ?B ?C ?D ?E ?F ?G ?H ?I ?J ?K ?L))))
(assert(forall((?A Int)(?B Int)(?C Int)(?D Int)(?E Int)(?F Int)(?G Int)(?H Int)(?I Int)(?J Int)(?K Int)(?L Int)(?M Int)(?N Int)(?O Int)(?P Int)(?Q Int)(?R Int))(=>(and (main_h_28 ?A ?B ?C ?D ?E ?F ?M ?N ?O ?P ?Q ?R)(and (= ?I (- ?O 1)) (and (and (and (and (= ?M ?G) (= ?N ?H)) (= ?P ?J)) (= ?Q ?K)) (= ?R ?L)))) (main_h_30 ?A ?B ?C ?D ?E ?F ?G ?H ?I ?J ?K ?L))))
(assert(forall((?A Int)(?B Int)(?C Int)(?D Int)(?E Int)(?F Int)(?G Int)(?H Int)(?I Int)(?J Int)(?K Int)(?L Int)(?M Int)(?N Int)(?O Int)(?P Int)(?Q Int)(?R Int))(=>(and (main_h_23 ?A ?B ?C ?D ?E ?F ?M ?N ?O ?P ?Q ?R)(and (and (and (and (and (= ?M ?G) (= ?N ?H)) (= ?O ?I)) (= ?P ?J)) (= ?Q ?K)) (= ?R ?L))) (main_h_27 ?A ?B ?C ?D ?E ?F ?G ?H ?I ?J ?K ?L))))
(assert(forall((?A Int)(?B Int)(?C Int)(?D Int)(?E Int)(?F Int)(?G Int)(?H Int)(?I Int)(?J Int)(?K Int)(?L Int)(?M Int)(?N Int)(?O Int)(?P Int)(?Q Int)(?R Int))(=>(and (main_h_24 ?A ?B ?C ?D ?E ?F ?M ?N ?O ?P ?Q ?R)(and (and (and (and (and (= ?M ?G) (= ?N ?H)) (= ?O ?I)) (= ?P ?J)) (= ?Q ?K)) (= ?R ?L))) (main_h_28 ?A ?B ?C ?D ?E ?F ?G ?H ?I ?J ?K ?L))))
(assert(forall((?A Int)(?B Int)(?C Int)(?D Int)(?E Int)(?F Int)(?G Int)(?H Int)(?I Int)(?J Int)(?K Int)(?L Int)(?M Int)(?N Int)(?O Int)(?P Int)(?Q Int)(?R Int))(=>(and (main_h_21 ?A ?B ?C ?D ?E ?F ?M ?N ?O ?P ?Q ?R)(and (and (and (= ?L 1) (= ?H (- ?R 1))) (>= ?R 2)) (and (and (and (= ?M ?G) (= ?O ?I)) (= ?P ?J)) (= ?Q ?K)))) (main_h_23 ?A ?B ?C ?D ?E ?F ?G ?H ?I ?J ?K ?L))))
(assert(forall((?A Int)(?B Int)(?C Int)(?D Int)(?E Int)(?F Int)(?G Int)(?H Int)(?I Int)(?J Int)(?K Int)(?L Int)(?M Int)(?N Int)(?O Int)(?P Int)(?Q Int)(?R Int))(=>(and (main_h_22 ?A ?B ?C ?D ?E ?F ?M ?N ?O ?P ?Q ?R)(and (and (and (and (and (= ?M ?G) (= ?N ?H)) (= ?O ?I)) (= ?P ?J)) (= ?Q ?K)) (= ?R ?L))) (main_h_24 ?A ?B ?C ?D ?E ?F ?G ?H ?I ?J ?K ?L))))
(assert(forall((?A Int)(?B Int)(?C Int)(?D Int)(?E Int)(?F Int)(?G Int)(?H Int)(?I Int)(?J Int)(?K Int)(?L Int)(?M Int)(?N Int)(?O Int)(?P Int)(?Q Int)(?R Int))(=>(and (main_h_18 ?A ?B ?C ?D ?E ?F ?M ?N ?O ?P ?Q ?R)(and (= ?I (- ?O 1)) (and (and (and (and (= ?M ?G) (= ?N ?H)) (= ?P ?J)) (= ?Q ?K)) (= ?R ?L)))) (main_h_21 ?A ?B ?C ?D ?E ?F ?G ?H ?I ?J ?K ?L))))
(assert(forall((?A Int)(?B Int)(?C Int)(?D Int)(?E Int)(?F Int)(?G Int)(?H Int)(?I Int)(?J Int)(?K Int)(?L Int)(?M Int)(?N Int)(?O Int)(?P Int)(?Q Int)(?R Int))(=>(and (main_h_21 ?A ?B ?C ?D ?E ?F ?M ?N ?O ?P ?Q ?R)(and (= ?R 1) (and (and (and (and (and (= ?M ?G) (= ?N ?H)) (= ?O ?I)) (= ?P ?J)) (= ?Q ?K)) (= ?R ?L)))) (main_h_22 ?A ?B ?C ?D ?E ?F ?G ?H ?I ?J ?K ?L))))
(assert(forall((?A Int)(?B Int)(?C Int)(?D Int)(?E Int)(?F Int)(?G Int)(?H Int)(?I Int)(?J Int)(?K Int)(?L Int)(?M Int)(?N Int)(?O Int)(?P Int)(?Q Int)(?R Int))(=>(and (main_h_17 ?A ?B ?C ?D ?E ?F ?M ?N ?O ?P ?Q ?R)(and (and (and (and (= ?H 1) (= ?G (- ?N 1))) (= ?L (+ ?N ?R))) (>= ?N 2)) (and (and (= ?O ?I) (= ?P ?J)) (= ?Q ?K)))) (main_h_20 ?A ?B ?C ?D ?E ?F ?G ?H ?I ?J ?K ?L))))
(assert(forall((?A Int)(?B Int)(?C Int)(?D Int)(?E Int)(?F Int)(?G Int)(?H Int)(?I Int)(?J Int)(?K Int)(?L Int)(?M Int)(?N Int)(?O Int)(?P Int)(?Q Int)(?R Int))(=>(and (main_h_20 ?A ?B ?C ?D ?E ?F ?M ?N ?O ?P ?Q ?R)(and (and (and (and (= ?J ?M) (= ?K ?R)) (= ?L ?Q)) (= ?H ?P)) (and (= ?M ?G) (= ?O ?I)))) (main_h_10 ?A ?B ?C ?D ?E ?F ?G ?H ?I ?J ?K ?L))))
(assert(forall((?A Int)(?B Int)(?C Int)(?D Int)(?E Int)(?F Int)(?G Int)(?H Int)(?I Int)(?J Int)(?K Int)(?L Int)(?M Int)(?N Int)(?O Int)(?P Int)(?Q Int)(?R Int))(=>(and (main_h_17 ?A ?B ?C ?D ?E ?F ?M ?N ?O ?P ?Q ?R)(and (and (= ?N 1) (= ?L (+ ?N ?R))) (and (and (and (and (= ?M ?G) (= ?N ?H)) (= ?O ?I)) (= ?P ?J)) (= ?Q ?K)))) (main_h_19 ?A ?B ?C ?D ?E ?F ?G ?H ?I ?J ?K ?L))))
(assert(forall((?A Int)(?B Int)(?C Int)(?D Int)(?E Int)(?F Int)(?G Int)(?H Int)(?I Int)(?J Int)(?K Int)(?L Int)(?M Int)(?N Int)(?O Int)(?P Int)(?Q Int)(?R Int))(=>(and (main_h_19 ?A ?B ?C ?D ?E ?F ?M ?N ?O ?P ?Q ?R)(and (and (= ?J ?R) (= ?L ?P)) (and (and (and (= ?M ?G) (= ?N ?H)) (= ?O ?I)) (= ?Q ?K)))) (main_h_9 ?A ?B ?C ?D ?E ?F ?G ?H ?I ?J ?K ?L))))
(assert(forall((?A Int)(?B Int)(?C Int)(?D Int)(?E Int)(?F Int)(?G Int)(?H Int)(?I Int)(?J Int)(?K Int)(?L Int)(?M Int)(?N Int)(?O Int)(?P Int)(?Q Int)(?R Int))(=>(and (main_h_14 ?A ?B ?C ?D ?E ?F ?M ?N ?O ?P ?Q ?R)(and (= ?I (+ ?O 1)) (and (and (and (and (= ?M ?G) (= ?N ?H)) (= ?P ?J)) (= ?Q ?K)) (= ?R ?L)))) (main_h_17 ?A ?B ?C ?D ?E ?F ?G ?H ?I ?J ?K ?L))))
(assert(forall((?A Int)(?B Int)(?C Int)(?D Int)(?E Int)(?F Int)(?G Int)(?H Int)(?I Int)(?J Int)(?K Int)(?L Int)(?M Int)(?N Int)(?O Int)(?P Int)(?Q Int)(?R Int))(=>(and (main_h_16 ?A ?B ?C ?D ?E ?F ?M ?N ?O ?P ?Q ?R)(and (and (and (and (and (= ?M ?G) (= ?N ?H)) (= ?O ?I)) (= ?P ?J)) (= ?Q ?K)) (= ?R ?L))) (main_h_18 ?A ?B ?C ?D ?E ?F ?G ?H ?I ?J ?K ?L))))
(assert(forall((?A Int)(?B Int)(?C Int)(?D Int)(?E Int)(?F Int)(?G Int)(?H Int)(?I Int)(?J Int)(?K Int)(?L Int)(?M Int)(?N Int)(?O Int)(?P Int)(?Q Int)(?R Int))(=>(and (main_h_13 ?A ?B ?C ?D ?E ?F ?M ?N ?O ?P ?Q ?R)(and (and (and (and (and (= ?M ?G) (= ?N ?H)) (= ?O ?I)) (= ?P ?J)) (= ?Q ?K)) (= ?R ?L))) (main_h_16 ?A ?B ?C ?D ?E ?F ?G ?H ?I ?J ?K ?L))))
(assert(forall((?A Int)(?B Int)(?C Int)(?D Int)(?E Int)(?F Int)(?G Int)(?H Int)(?I Int)(?J Int)(?K Int)(?L Int)(?M Int)(?N Int)(?O Int)(?P Int)(?Q Int)(?R Int))(=>(and (main_h_12 ?A ?B ?C ?D ?E ?F ?M ?N ?O ?P ?Q ?R)(and (and (and (and (and (= ?M ?G) (= ?N ?H)) (= ?O ?I)) (= ?P ?J)) (= ?Q ?K)) (= ?R ?L))) (main_h_14 ?A ?B ?C ?D ?E ?F ?G ?H ?I ?J ?K ?L))))
(assert(forall((?A Int)(?B Int)(?C Int)(?D Int)(?E Int)(?F Int)(?G Int)(?H Int)(?I Int)(?J Int)(?K Int)(?L Int)(?M Int)(?N Int)(?O Int)(?P Int)(?Q Int)(?R Int))(=>(and (main_h_11 ?A ?B ?C ?D ?E ?F ?M ?N ?O ?P ?Q ?R)(and (and (and (and (and (= ?M ?G) (= ?N ?H)) (= ?O ?I)) (= ?P ?J)) (= ?Q ?K)) (= ?R ?L))) (main_h_13 ?A ?B ?C ?D ?E ?F ?G ?H ?I ?J ?K ?L))))
(assert(forall((?A Int)(?B Int)(?C Int)(?D Int)(?E Int)(?F Int)(?G Int)(?H Int)(?I Int)(?J Int)(?K Int)(?L Int)(?M Int)(?N Int)(?O Int)(?P Int)(?Q Int)(?R Int))(=>(and (main_h_10 ?A ?B ?C ?D ?E ?F ?M ?N ?O ?P ?Q ?R)(and (and (and (and (and (= ?M ?G) (= ?N ?H)) (= ?O ?I)) (= ?P ?J)) (= ?Q ?K)) (= ?R ?L))) (main_h_12 ?A ?B ?C ?D ?E ?F ?G ?H ?I ?J ?K ?L))))
(assert(forall((?A Int)(?B Int)(?C Int)(?D Int)(?E Int)(?F Int)(?G Int)(?H Int)(?I Int)(?J Int)(?K Int)(?L Int)(?M Int)(?N Int)(?O Int)(?P Int)(?Q Int)(?R Int))(=>(and (main_h_9 ?A ?B ?C ?D ?E ?F ?M ?N ?O ?P ?Q ?R)(and (and (and (and (and (= ?M ?G) (= ?N ?H)) (= ?O ?I)) (= ?P ?J)) (= ?Q ?K)) (= ?R ?L))) (main_h_11 ?A ?B ?C ?D ?E ?F ?G ?H ?I ?J ?K ?L))))
(assert(forall((?A Int)(?B Int)(?C Int)(?D Int)(?E Int)(?F Int)(?G Int)(?H Int)(?I Int)(?J Int)(?K Int)(?L Int)(?M Int)(?N Int)(?O Int)(?P Int)(?Q Int)(?R Int))(=>(and (main_h_8 ?A ?B ?C ?D ?E ?F ?M ?N ?O ?P ?Q ?R)(and (and (and (= ?L 1) (= ?H (- ?R 1))) (>= ?R 2)) (and (and (and (= ?M ?G) (= ?O ?I)) (= ?P ?J)) (= ?Q ?K)))) (main_h_10 ?A ?B ?C ?D ?E ?F ?G ?H ?I ?J ?K ?L))))
(assert(forall((?A Int)(?B Int)(?C Int)(?D Int)(?E Int)(?F Int)(?G Int)(?H Int)(?I Int)(?J Int)(?K Int)(?L Int)(?M Int)(?N Int)(?O Int)(?P Int)(?Q Int)(?R Int))(=>(and (main_h_8 ?A ?B ?C ?D ?E ?F ?M ?N ?O ?P ?Q ?R)(and (= ?R 1) (and (and (and (and (and (= ?M ?G) (= ?N ?H)) (= ?O ?I)) (= ?P ?J)) (= ?Q ?K)) (= ?R ?L)))) (main_h_9 ?A ?B ?C ?D ?E ?F ?G ?H ?I ?J ?K ?L))))
(assert(forall((?A Int)(?B Int)(?C Int)(?D Int)(?E Int)(?F Int)(?G Int)(?H Int)(?I Int)(?J Int)(?K Int)(?L Int)(?M Int)(?N Int)(?O Int)(?P Int)(?Q Int)(?R Int))(=>(and (main_h_7 ?A ?B ?C ?D ?E ?F ?M ?N ?O ?P ?Q ?R)(and (= ?I (+ ?O 1)) (and (and (and (and (= ?M ?G) (= ?N ?H)) (= ?P ?J)) (= ?Q ?K)) (= ?R ?L)))) (main_h_8 ?A ?B ?C ?D ?E ?F ?G ?H ?I ?J ?K ?L))))
(assert(forall((?A Int)(?B Int)(?C Int)(?D Int)(?E Int)(?F Int)(?G Int)(?H Int)(?I Int)(?J Int)(?K Int)(?L Int)(?M Int)(?N Int)(?O Int)(?P Int)(?Q Int)(?R Int))(=>(and (main_h_6 ?A ?B ?C ?D ?E ?F ?M ?N ?O ?P ?Q ?R)(and (and (and (and (and (= ?M ?G) (= ?N ?H)) (= ?O ?I)) (= ?P ?J)) (= ?Q ?K)) (= ?R ?L))) (main_h_7 ?A ?B ?C ?D ?E ?F ?G ?H ?I ?J ?K ?L))))
(assert(forall((?A Int)(?B Int)(?C Int)(?D Int)(?E Int)(?F Int)(?G Int)(?H Int)(?I Int)(?J Int)(?K Int)(?L Int)(?M Int)(?N Int)(?O Int)(?P Int)(?Q Int)(?R Int))(=>(and (main_h_5 ?A ?B ?C ?D ?E ?F ?M ?N ?O ?P ?Q ?R)(and (and (and (and (and (= ?M ?G) (= ?N ?H)) (= ?O ?I)) (= ?P ?J)) (= ?Q ?K)) (= ?R ?L))) (main_h_6 ?A ?B ?C ?D ?E ?F ?G ?H ?I ?J ?K ?L))))
(assert(forall((?A Int)(?B Int)(?C Int)(?D Int)(?E Int)(?F Int)(?G Int)(?H Int)(?I Int)(?J Int)(?K Int)(?L Int)(?M Int)(?N Int)(?O Int)(?P Int)(?Q Int)(?R Int))(=>(and (main_h_4 ?A ?B ?C ?D ?E ?F ?M ?N ?O ?P ?Q ?R)(and (= ?I 0) (and (and (and (and (= ?M ?G) (= ?N ?H)) (= ?P ?J)) (= ?Q ?K)) (= ?R ?L)))) (main_h_5 ?A ?B ?C ?D ?E ?F ?G ?H ?I ?J ?K ?L))))
(assert(forall((?A Int)(?B Int)(?C Int)(?D Int)(?E Int)(?F Int)(?G Int)(?H Int)(?I Int)(?J Int)(?K Int)(?L Int)(?M Int)(?N Int)(?O Int)(?P Int)(?Q Int)(?R Int))(=>(and (main_h_3 ?A ?B ?C ?D ?E ?F ?M ?N ?O ?P ?Q ?R)(and (and (and (and (and (= ?M ?G) (= ?N ?H)) (= ?O ?I)) (= ?P ?J)) (= ?Q ?K)) (= ?R ?L))) (main_h_4 ?A ?B ?C ?D ?E ?F ?G ?H ?I ?J ?K ?L))))
(assert(forall((?A Int)(?B Int)(?C Int)(?D Int)(?E Int)(?F Int)(?G Int)(?H Int)(?I Int)(?J Int)(?K Int)(?L Int)(?M Int)(?N Int)(?O Int)(?P Int)(?Q Int)(?R Int))(=>(and (main_h_2 ?A ?B ?C ?D ?E ?F ?M ?N ?O ?P ?Q ?R)(and (and (and (and (and (= ?M ?G) (= ?N ?H)) (= ?O ?I)) (= ?P ?J)) (= ?Q ?K)) (= ?R ?L))) (main_h_3 ?A ?B ?C ?D ?E ?F ?G ?H ?I ?J ?K ?L))))
(assert(forall((?A Int)(?B Int)(?C Int)(?D Int)(?E Int)(?F Int)(?G Int)(?H Int)(?I Int)(?J Int)(?K Int)(?L Int)(?M Int)(?N Int)(?O Int)(?P Int)(?Q Int)(?R Int))(=>(and (main_h_1 ?A ?B ?C ?D ?E ?F ?M ?N ?O ?P ?Q ?R)(and (and (and (and (and (= ?M ?G) (= ?N ?H)) (= ?O ?I)) (= ?P ?J)) (= ?Q ?K)) (= ?R ?L))) (main_h_2 ?A ?B ?C ?D ?E ?F ?G ?H ?I ?J ?K ?L))))
(assert(forall((?A Int)(?B Int)(?C Int)(?D Int)(?E Int)(?F Int)(?G Int)(?H Int)(?I Int)(?J Int)(?K Int)(?L Int))(=>(and (and (and (and (and (= ?A ?G) (= ?B ?H)) (= ?C ?I)) (= ?D ?J)) (= ?E ?K)) (= ?F ?L)) (main_h_1 ?A ?B ?C ?D ?E ?F ?G ?H ?I ?J ?K ?L))))
(check-sat)
